c Reduced graph for miles500 generated by Cyril Grelier
p edge 75 796
e 1 2
e 1 4
e 1 9
e 1 10
e 1 18
e 1 19
e 1 24
e 1 26
e 1 27
e 1 28
e 1 29
e 1 31
e 1 37
e 1 38
e 1 41
e 1 42
e 1 43
e 1 45
e 1 46
e 1 47
e 1 49
e 1 50
e 1 51
e 1 53
e 1 56
e 1 57
e 1 58
e 1 61
e 1 64
e 1 65
e 1 67
e 1 68
e 1 69
e 1 70
e 1 71
e 2 9
e 2 11
e 2 18
e 2 19
e 2 20
e 2 24
e 2 26
e 2 27
e 2 29
e 2 31
e 2 37
e 2 38
e 2 41
e 2 42
e 2 45
e 2 46
e 2 47
e 2 49
e 2 50
e 2 51
e 2 52
e 2 53
e 2 56
e 2 57
e 2 58
e 2 61
e 2 64
e 2 65
e 2 67
e 2 68
e 2 69
e 2 70
e 3 4
e 3 10
e 3 12
e 3 13
e 3 21
e 3 25
e 3 27
e 3 28
e 3 33
e 3 39
e 3 43
e 3 44
e 3 45
e 3 49
e 3 54
e 3 55
e 3 58
e 3 59
e 3 61
e 3 62
e 3 63
e 3 66
e 3 72
e 3 73
e 3 74
e 3 75
e 4 10
e 4 26
e 4 27
e 4 28
e 4 43
e 4 45
e 4 49
e 4 50
e 4 54
e 4 55
e 4 58
e 4 61
e 4 62
e 4 64
e 4 65
e 4 66
e 4 67
e 4 71
e 4 74
e 4 75
e 5 6
e 5 7
e 5 8
e 5 13
e 5 21
e 5 32
e 5 34
e 5 40
e 5 44
e 5 59
e 5 60
e 5 73
e 6 7
e 6 8
e 6 32
e 6 34
e 6 40
e 6 60
e 7 30
e 7 32
e 7 40
e 8 34
e 9 11
e 9 18
e 9 19
e 9 20
e 9 24
e 9 26
e 9 27
e 9 29
e 9 31
e 9 37
e 9 38
e 9 41
e 9 42
e 9 45
e 9 46
e 9 47
e 9 50
e 9 51
e 9 52
e 9 53
e 9 56
e 9 57
e 9 61
e 9 64
e 9 65
e 9 68
e 9 69
e 9 70
e 9 71
e 10 25
e 10 26
e 10 27
e 10 28
e 10 33
e 10 39
e 10 43
e 10 44
e 10 45
e 10 49
e 10 54
e 10 55
e 10 58
e 10 61
e 10 62
e 10 63
e 10 64
e 10 65
e 10 66
e 10 67
e 10 71
e 10 72
e 10 74
e 10 75
e 11 14
e 11 19
e 11 20
e 11 24
e 11 31
e 11 35
e 11 41
e 11 48
e 11 51
e 11 52
e 11 67
e 11 70
e 12 13
e 12 21
e 12 25
e 12 33
e 12 39
e 12 54
e 12 59
e 12 62
e 12 63
e 12 72
e 12 73
e 12 74
e 13 21
e 13 25
e 13 34
e 13 39
e 13 59
e 13 60
e 13 73
e 13 74
e 14 15
e 14 20
e 14 35
e 14 48
e 14 51
e 14 52
e 14 67
e 15 30
e 15 35
e 15 44
e 15 48
e 15 55
e 16 22
e 16 23
e 16 36
e 18 19
e 18 24
e 18 26
e 18 27
e 18 29
e 18 31
e 18 37
e 18 38
e 18 41
e 18 42
e 18 45
e 18 46
e 18 47
e 18 49
e 18 50
e 18 53
e 18 56
e 18 57
e 18 61
e 18 64
e 18 65
e 18 68
e 18 69
e 18 70
e 18 71
e 19 20
e 19 24
e 19 26
e 19 27
e 19 29
e 19 31
e 19 37
e 19 41
e 19 42
e 19 45
e 19 46
e 19 47
e 19 48
e 19 50
e 19 51
e 19 52
e 19 56
e 19 64
e 19 65
e 19 67
e 19 68
e 19 69
e 19 70
e 20 24
e 20 26
e 20 28
e 20 31
e 20 35
e 20 37
e 20 41
e 20 45
e 20 48
e 20 51
e 20 52
e 20 58
e 20 64
e 20 65
e 20 67
e 20 69
e 20 70
e 21 25
e 21 32
e 21 33
e 21 34
e 21 39
e 21 54
e 21 59
e 21 60
e 21 62
e 21 63
e 21 72
e 21 73
e 21 74
e 22 23
e 22 36
e 23 36
e 24 26
e 24 27
e 24 28
e 24 29
e 24 31
e 24 37
e 24 38
e 24 41
e 24 42
e 24 45
e 24 46
e 24 47
e 24 49
e 24 50
e 24 51
e 24 52
e 24 53
e 24 56
e 24 57
e 24 58
e 24 61
e 24 64
e 24 65
e 24 67
e 24 68
e 24 69
e 24 70
e 24 71
e 25 33
e 25 39
e 25 43
e 25 44
e 25 54
e 25 59
e 25 60
e 25 62
e 25 63
e 25 72
e 25 73
e 25 74
e 26 27
e 26 28
e 26 29
e 26 31
e 26 37
e 26 38
e 26 41
e 26 42
e 26 43
e 26 45
e 26 46
e 26 47
e 26 49
e 26 50
e 26 51
e 26 52
e 26 55
e 26 58
e 26 61
e 26 62
e 26 64
e 26 65
e 26 66
e 26 67
e 26 68
e 26 69
e 26 70
e 26 71
e 26 75
e 27 28
e 27 29
e 27 31
e 27 37
e 27 38
e 27 41
e 27 42
e 27 43
e 27 45
e 27 46
e 27 47
e 27 49
e 27 50
e 27 51
e 27 55
e 27 58
e 27 61
e 27 62
e 27 64
e 27 65
e 27 66
e 27 67
e 27 69
e 27 70
e 27 71
e 27 75
e 28 31
e 28 37
e 28 43
e 28 44
e 28 45
e 28 49
e 28 50
e 28 51
e 28 54
e 28 55
e 28 58
e 28 59
e 28 61
e 28 62
e 28 64
e 28 65
e 28 66
e 28 67
e 28 71
e 28 72
e 28 74
e 28 75
e 29 31
e 29 37
e 29 38
e 29 41
e 29 42
e 29 45
e 29 46
e 29 47
e 29 50
e 29 51
e 29 52
e 29 53
e 29 56
e 29 57
e 29 61
e 29 64
e 29 65
e 29 68
e 29 69
e 29 70
e 29 71
e 30 32
e 30 40
e 31 37
e 31 41
e 31 42
e 31 45
e 31 46
e 31 47
e 31 49
e 31 50
e 31 51
e 31 52
e 31 58
e 31 61
e 31 64
e 31 65
e 31 67
e 31 68
e 31 69
e 31 70
e 32 34
e 32 39
e 32 40
e 32 44
e 32 54
e 32 55
e 32 59
e 32 60
e 32 66
e 32 73
e 33 39
e 33 43
e 33 54
e 33 62
e 33 63
e 33 72
e 33 74
e 33 75
e 34 39
e 34 40
e 34 44
e 34 54
e 34 59
e 34 60
e 34 73
e 35 48
e 35 52
e 37 38
e 37 41
e 37 42
e 37 45
e 37 46
e 37 47
e 37 49
e 37 50
e 37 51
e 37 52
e 37 53
e 37 56
e 37 57
e 37 58
e 37 61
e 37 64
e 37 65
e 37 68
e 37 69
e 37 70
e 37 71
e 38 41
e 38 42
e 38 45
e 38 46
e 38 47
e 38 50
e 38 53
e 38 56
e 38 57
e 38 61
e 38 64
e 38 65
e 38 68
e 38 69
e 38 70
e 38 71
e 39 43
e 39 44
e 39 54
e 39 55
e 39 59
e 39 60
e 39 62
e 39 63
e 39 66
e 39 72
e 39 73
e 39 74
e 40 59
e 40 60
e 40 73
e 41 42
e 41 45
e 41 46
e 41 47
e 41 49
e 41 50
e 41 51
e 41 52
e 41 53
e 41 56
e 41 57
e 41 58
e 41 61
e 41 64
e 41 65
e 41 68
e 41 69
e 41 70
e 41 71
e 42 45
e 42 46
e 42 47
e 42 50
e 42 53
e 42 56
e 42 57
e 42 61
e 42 64
e 42 65
e 42 68
e 42 69
e 42 70
e 42 71
e 43 44
e 43 45
e 43 49
e 43 54
e 43 55
e 43 58
e 43 61
e 43 62
e 43 63
e 43 64
e 43 65
e 43 66
e 43 67
e 43 71
e 43 72
e 43 74
e 43 75
e 44 49
e 44 54
e 44 55
e 44 58
e 44 59
e 44 60
e 44 61
e 44 62
e 44 66
e 44 72
e 44 73
e 44 74
e 45 46
e 45 47
e 45 49
e 45 50
e 45 51
e 45 55
e 45 58
e 45 61
e 45 62
e 45 64
e 45 65
e 45 66
e 45 67
e 45 69
e 45 70
e 45 71
e 45 75
e 46 47
e 46 49
e 46 50
e 46 51
e 46 52
e 46 53
e 46 56
e 46 57
e 46 61
e 46 64
e 46 65
e 46 68
e 46 69
e 46 70
e 46 71
e 47 50
e 47 53
e 47 56
e 47 57
e 47 65
e 47 68
e 47 69
e 47 70
e 47 71
e 48 51
e 48 52
e 49 50
e 49 51
e 49 54
e 49 55
e 49 58
e 49 61
e 49 62
e 49 64
e 49 65
e 49 66
e 49 67
e 49 71
e 49 72
e 49 74
e 49 75
e 50 53
e 50 56
e 50 57
e 50 58
e 50 61
e 50 64
e 50 65
e 50 68
e 50 69
e 50 70
e 50 71
e 51 52
e 51 58
e 51 61
e 51 64
e 51 65
e 51 67
e 51 69
e 51 70
e 52 64
e 52 65
e 52 67
e 52 69
e 52 70
e 53 56
e 53 57
e 53 68
e 53 69
e 53 70
e 54 55
e 54 58
e 54 59
e 54 60
e 54 61
e 54 62
e 54 63
e 54 64
e 54 66
e 54 72
e 54 73
e 54 74
e 54 75
e 55 58
e 55 59
e 55 60
e 55 61
e 55 62
e 55 64
e 55 65
e 55 66
e 55 67
e 55 72
e 55 73
e 55 74
e 56 57
e 56 68
e 56 69
e 56 70
e 56 71
e 57 68
e 57 69
e 57 70
e 57 71
e 58 61
e 58 62
e 58 64
e 58 65
e 58 66
e 58 67
e 58 71
e 58 74
e 58 75
e 59 60
e 59 62
e 59 66
e 59 73
e 60 66
e 60 73
e 61 62
e 61 64
e 61 65
e 61 66
e 61 67
e 61 71
e 61 74
e 61 75
e 62 63
e 62 64
e 62 66
e 62 72
e 62 74
e 62 75
e 63 66
e 63 72
e 63 74
e 63 75
e 64 65
e 64 66
e 64 67
e 64 69
e 64 70
e 64 71
e 64 75
e 65 66
e 65 67
e 65 68
e 65 69
e 65 70
e 65 71
e 66 67
e 66 72
e 66 73
e 66 74
e 66 75
e 68 69
e 68 70
e 68 71
e 69 70
e 69 71
e 71 75
e 72 74
e 72 75
e 73 74
